NAME          DCAP_2_4_3_500_SS376
ROWS
 N  OBJ
 L  CON1
 L  CON2
 L  CON3
 L  CON4
 L  CON5
 L  CON6
 L  CON7
 L  CON8
 L  CON9
 L  CON10
 L  CON11
 L  CON12
 E  CON13
 E  CON14
 E  CON15
 E  CON16
 E  CON17
 E  CON18
 E  CON19
 E  CON20
 E  CON21
 E  CON22
 E  CON23
 E  CON24
COLUMNS
    x[1,1]    OBJ       6.180167      CON1      1.000000    
    x[1,1]    CON7      -1.000000     CON8      -1.000000   
    x[1,1]    CON9      -1.000000   
    x[1,2]    OBJ       6.563535      CON2      1.000000    
    x[1,2]    CON8      -1.000000     CON9      -1.000000   
    x[1,3]    OBJ       7.443064      CON3      1.000000    
    x[1,3]    CON9      -1.000000   
    x[2,1]    OBJ       6.732585      CON4      1.000000    
    x[2,1]    CON10     -1.000000     CON11     -1.000000   
    x[2,1]    CON12     -1.000000   
    x[2,2]    OBJ       5.039546      CON5      1.000000    
    x[2,2]    CON11     -1.000000     CON12     -1.000000   
    x[2,3]    OBJ       6.054841      CON6      1.000000    
    x[2,3]    CON12     -1.000000   
    MARKER    'MARKER'                'INTORG'
    u[1,1]    OBJ       48.076654     CON1      -1.000000   
    u[1,2]    OBJ       20.066487     CON2      -1.000000   
    u[1,3]    OBJ       32.230043     CON3      -1.000000   
    u[2,1]    OBJ       49.996186     CON4      -1.000000   
    u[2,2]    OBJ       49.466655     CON5      -1.000000   
    u[2,3]    OBJ       27.484319     CON6      -1.000000   
    y[1,1,1]  OBJ       7.230470      CON7      1.367761    
    y[1,1,1]  CON13     1.000000    
    y[1,1,2]  OBJ       7.270088      CON8      0.892956    
    y[1,1,2]  CON14     1.000000    
    y[1,1,3]  OBJ       7.345355      CON9      1.289602    
    y[1,1,3]  CON15     1.000000    
    y[1,2,1]  OBJ       7.228621      CON7      1.470136    
    y[1,2,1]  CON16     1.000000    
    y[1,2,2]  OBJ       8.250225      CON8      1.257608    
    y[1,2,2]  CON17     1.000000    
    y[1,2,3]  OBJ       7.862972      CON9      1.477898    
    y[1,2,3]  CON18     1.000000    
    y[1,3,1]  OBJ       9.169087      CON7      1.274692    
    y[1,3,1]  CON19     1.000000    
    y[1,3,2]  OBJ       5.923472      CON8      1.106941    
    y[1,3,2]  CON20     1.000000    
    y[1,3,3]  OBJ       8.519431      CON9      0.779221    
    y[1,3,3]  CON21     1.000000    
    y[1,4,1]  OBJ       8.981300      CON7      1.437458    
    y[1,4,1]  CON22     1.000000    
    y[1,4,2]  OBJ       8.615077      CON8      1.182717    
    y[1,4,2]  CON23     1.000000    
    y[1,4,3]  OBJ       8.806151      CON9      0.845508    
    y[1,4,3]  CON24     1.000000    
    y[2,1,1]  OBJ       6.164271      CON10     1.367761    
    y[2,1,1]  CON13     1.000000    
    y[2,1,2]  OBJ       8.904651      CON11     0.892956    
    y[2,1,2]  CON14     1.000000    
    y[2,1,3]  OBJ       6.617160      CON12     1.289602    
    y[2,1,3]  CON15     1.000000    
    y[2,2,1]  OBJ       9.941187      CON10     1.470136    
    y[2,2,1]  CON16     1.000000    
    y[2,2,2]  OBJ       5.870738      CON11     1.257608    
    y[2,2,2]  CON17     1.000000    
    y[2,2,3]  OBJ       6.674172      CON12     1.477898    
    y[2,2,3]  CON18     1.000000    
    y[2,3,1]  OBJ       7.534109      CON10     1.274692    
    y[2,3,1]  CON19     1.000000    
    y[2,3,2]  OBJ       8.489112      CON11     1.106941    
    y[2,3,2]  CON20     1.000000    
    y[2,3,3]  OBJ       9.124330      CON12     0.779221    
    y[2,3,3]  CON21     1.000000    
    y[2,4,1]  OBJ       6.809799      CON10     1.437458    
    y[2,4,1]  CON22     1.000000    
    y[2,4,2]  OBJ       9.152452      CON11     1.182717    
    y[2,4,2]  CON23     1.000000    
    y[2,4,3]  OBJ       7.566083      CON12     0.845508    
    y[2,4,3]  CON24     1.000000    
    z[1,1]    OBJ       856.954234    CON13     1.000000    
    z[1,2]    OBJ       748.918535    CON14     1.000000    
    z[1,3]    OBJ       620.842090    CON15     1.000000    
    z[2,1]    OBJ       965.441118    CON16     1.000000    
    z[2,2]    OBJ       510.632127    CON17     1.000000    
    z[2,3]    OBJ       879.214136    CON18     1.000000    
    z[3,1]    OBJ       828.762552    CON19     1.000000    
    z[3,2]    OBJ       772.196242    CON20     1.000000    
    z[3,3]    OBJ       890.991179    CON21     1.000000    
    z[4,1]    OBJ       838.894654    CON22     1.000000    
    z[4,2]    OBJ       865.823080    CON23     1.000000    
    z[4,3]    OBJ       631.380890    CON24     1.000000    
    MARKER    'MARKER'                 'INTEND'
RHS
    RHS       CON1      -0.000000     CON2      -0.000000   
    RHS       CON3      -0.000000     CON4      -0.000000   
    RHS       CON5      -0.000000     CON6      -0.000000   
    RHS       CON7      -0.000000     CON8      -0.000000   
    RHS       CON9      -0.000000     CON10     -0.000000   
    RHS       CON11     -0.000000     CON12     -0.000000   
    RHS       CON13     1.000000      CON14     1.000000    
    RHS       CON15     1.000000      CON16     1.000000    
    RHS       CON17     1.000000      CON18     1.000000    
    RHS       CON19     1.000000      CON20     1.000000    
    RHS       CON21     1.000000      CON22     1.000000    
    RHS       CON23     1.000000      CON24     1.000000    
BOUNDS
 BV BOUND     u[1,1]  
 BV BOUND     u[1,2]  
 BV BOUND     u[1,3]  
 BV BOUND     u[2,1]  
 BV BOUND     u[2,2]  
 BV BOUND     u[2,3]  
 BV BOUND     y[1,1,1]
 BV BOUND     y[1,1,2]
 BV BOUND     y[1,1,3]
 BV BOUND     y[1,2,1]
 BV BOUND     y[1,2,2]
 BV BOUND     y[1,2,3]
 BV BOUND     y[1,3,1]
 BV BOUND     y[1,3,2]
 BV BOUND     y[1,3,3]
 BV BOUND     y[1,4,1]
 BV BOUND     y[1,4,2]
 BV BOUND     y[1,4,3]
 BV BOUND     y[2,1,1]
 BV BOUND     y[2,1,2]
 BV BOUND     y[2,1,3]
 BV BOUND     y[2,2,1]
 BV BOUND     y[2,2,2]
 BV BOUND     y[2,2,3]
 BV BOUND     y[2,3,1]
 BV BOUND     y[2,3,2]
 BV BOUND     y[2,3,3]
 BV BOUND     y[2,4,1]
 BV BOUND     y[2,4,2]
 BV BOUND     y[2,4,3]
 BV BOUND     z[1,1]  
 BV BOUND     z[1,2]  
 BV BOUND     z[1,3]  
 BV BOUND     z[2,1]  
 BV BOUND     z[2,2]  
 BV BOUND     z[2,3]  
 BV BOUND     z[3,1]  
 BV BOUND     z[3,2]  
 BV BOUND     z[3,3]  
 BV BOUND     z[4,1]  
 BV BOUND     z[4,2]  
 BV BOUND     z[4,3]  
ENDATA
